nNurses = 92;
nHours = 30;
minHours = 6;
maxHours = 15;
maxConsec = 15;
maxPresence = 7;
demand = [31, 32, 29, 29, 30, 33, 35, 37, 32, 27, 25, 21, 24, 21, 22, 24, 25, 28, 28, 24, 23, 26, 30, 34, 29, 25, 22, 26, 27, 26];
